c This is QMaxSAT 2017 based on 14.07
c This is Glucose 3.0
c This is MiniSat 2.2.0
c WARNING: for repeatability, setting FPU to use double precision
c card = mrwto, comp = 0, pmodel = 0, narr = 4, mct = 29, verb = 0
cr firstCPXsol 0 0 0
c top = 167313
c |  Number of variables:    24532                                            |
c |  Number of clauses:      7834632                                          |
c |  Weight of hard clauses: 167313                                           |
c |  Number of soft clauses: 3248                                             |
c |  Number of unit soft clauses: 3248                                        |
c |  Maximum Cardinality (by unit): 669248       (669248      )               |
c last restart ## conflicts  :  8 2492 
o 2218 | cpuTime 0.643394 s
c Sum of weights = 167312
c A number of soft clauses remained = 812
c MRWTO encoding for Pseudo-Boolean Constraints
c sizeMax=2218
c No.0 Divisor=14	generated by pow1
c No.1 Divisor=14	generated by pow1
c No.2 Divisor=14	generated by pow1
c p0= 14	p1= 14	p2= 14	
c number of digits = 4
c linkingVar[0].size = 14, linkingVar[1].size = 14, linkingVar[2].size = 12, linkingVar[3].size = 1, 
c Pseudo-Boolean Constraints: 19965 variables and 224565 clauses
c Sum of weights = 167312
c A number of soft clauses remained = 812
c MRWTO encoding for Pseudo-Boolean Constraints
c sizeMax=2218
c No.0 Divisor=14	generated by pow1
c No.1 Divisor=14	generated by pow1
c No.2 Divisor=14	generated by pow1
c p0= 14	p1= 14	p2= 14	
c number of digits = 4
c linkingVar[0].size = 14, linkingVar[1].size = 14, linkingVar[2].size = 12, linkingVar[3].size = 1, 
c Pseudo-Boolean Constraints: 19965 variables and 224565 clauses
c Sum of weights = 167312
c A number of soft clauses remained = 812
c MRWTO encoding for Pseudo-Boolean Constraints
c sizeMax=2218
c No.0 Divisor=14	generated by pow1
c No.1 Divisor=14	generated by pow1
c No.2 Divisor=14	generated by pow1
c p0= 14	p1= 14	p2= 14	
c number of digits = 4
c linkingVar[0].size = 14, linkingVar[1].size = 14, linkingVar[2].size = 12, linkingVar[3].size = 1, 
c Pseudo-Boolean Constraints: 19965 variables and 224565 clauses
c Sum of weights = 167312
c A number of soft clauses remained = 812
c MRWTO encoding for Pseudo-Boolean Constraints
c sizeMax=2218
c No.0 Divisor=14	generated by pow1
c No.1 Divisor=14	generated by pow1
c No.2 Divisor=14	generated by pow1
c p0= 14	p1= 14	p2= 14	
c number of digits = 4
c linkingVar[0].size = 14, linkingVar[1].size = 14, linkingVar[2].size = 12, linkingVar[3].size = 1, 
c Pseudo-Boolean Constraints: 19965 variables and 224565 clauses
c last restart ## conflicts  :  354 5368 
o 1935 | cpuTime 0.908758 s
c last restart ## conflicts  :  1152 3664 
o 1874 | cpuTime 5.08316 s
c last restart ## conflicts  :  263 3260 
o 1808 | cpuTime 11.672 s
c last restart ## conflicts  :  146 12507 
o 1784 | cpuTime 11.7269 s
c last restart ## conflicts  :  57 3078 
o 1573 | cpuTime 19.4761 s
c last restart ## conflicts  :  102 3826 
o 1458 | cpuTime 66.7939 s
c last restart ## conflicts  :  140 3155 
o 1211 | cpuTime 83.8942 s
c last restart ## conflicts  :  486 2304 
o 1138 | cpuTime 119.076 s
c last restart ## conflicts  :  2522 2196 
o 1136 | cpuTime 319.689 s
c last restart ## conflicts  :  598 2081 
o 1094 | cpuTime 382.897 s
c last restart ## conflicts  :  1513 2837 
o 1061 | cpuTime 1058.81 s
c last restart ## conflicts  :  161 2639 
o 1027 | cpuTime 1324.08 s
c last restart ## conflicts  :  139 2154 
o 1018 | cpuTime 2965.87 s
s UNKNOWN
c Search is stopped by a limit (maybe time-limit)
cr positiVarArr: [ | 16@1(1->16) | 30@1(2->1) | 60@1(3->2) | 258@1(9->26) | 460@1(16->25) | 705@1(25->9) | 754@1(26->29) | 815@1(29->3) | 854@2(1->13) | 969@2(5->12) | 1122@2(10->20) | 1161@2(12->1) | 1199@2(13->10) | 1414@2(20->22) | 1426@2(21->5) | 1471@2(22->21) | 1710@3(1->28) | 1793@3(4->24) | 1845@3(6->18) | 1886@3(8->1) | 2076@3(14->17) | 2092@3(15->4) | 2161@3(17->15) | 2189@3(18->14) | 2357@3(24->8) | 2471@3(28->6) | 2530@4(1->7) | 2708@4(7->11) | 2832@4(11->19) | 3068@4(19->23) | 3188@4(23->27) | 3278@4(27->1) | ]
cr the 1-th chain: [ 1->16->25->9->26->29->3->2->1 ] (#non-depot=7) {#cumul.=8}
cr the 2-th chain: [ 1->13->10->20->22->21->5->12->1 ] (#non-depot=7) {#cumul.=15}
cr the 3-th chain: [ 1->28->6->18->14->17->15->4->24->8->1 ] (#non-depot=9) {#cumul.=24}
cr the 4-th chain: [ 1->7->11->19->23->27->1 ] (#non-depot=5) {#cumul.=29}
c Latest Answer = 0 by 14 loops
c restarts              : 34669
c conflicts             : 11487470       (3202 /sec)
c decisions             : 73155147       (0.00 % random) (20389 /sec)
c propagations          : 24602721454    (6857113 /sec)
c conflict literals     : 4372355000     (39.89 % deleted)
c Memory used           : 1568.00 MB
c CPU time              : 3587.91 s
